STSPTW_Problem.lp
\ENCODING=ISO-8859-1
\Problem name: ilog.cplex

Minimize
 obj: t(8)#0 - t(0)#1
Subject To
 c1:   - t(0)#1 + t(1)#2 >= 27.9
 c3:   - t(0)#1 + t(2)#3 >= 54.6
 c5:   - t(0)#1 + t(3)#4 >= 42
 c7:   - t(0)#1 + t(4)#5 >= 56.5
 c9:   - t(0)#1 + t(5)#6 >= 37
 c11:  - t(0)#1 + t(6)#7 >= 30.9
 c13:  - t(0)#1 + t(7)#8 >= 34.1
 c14:  t(8)#0 - t(1)#2 >= 27.9
 c15:  t(8)#0 - t(2)#3 >= 54.6
 c16:  t(8)#0 - t(3)#4 >= 42
 c17:  t(8)#0 - t(4)#5 >= 56.5
 c18:  t(8)#0 - t(5)#6 >= 37
 c19:  t(8)#0 - t(6)#7 >= 30.9
 c21:  t(8)#0 - t(7)#8 >= 34.1
 c23:  t(0)#1 - t(1)#2 + 1027.9 y(0)(1)#9 >= 27.9
 c25:  t(0)#1 - t(2)#3 + 1054.6 y(0)(2)#10 >= 54.6
 c27:  t(0)#1 - t(3)#4 + 1042 y(0)(3)#11 >= 42
 c29:  t(0)#1 - t(4)#5 + 1056.5 y(0)(4)#12 >= 56.5
 c31:  t(0)#1 - t(5)#6 + 1037 y(0)(5)#13 >= 37
 c33:  t(0)#1 - t(6)#7 + 1030.9 y(0)(6)#14 >= 30.9
 c35:  t(0)#1 - t(7)#8 + 1034.1 y(0)(7)#15 >= 34.1
 c37:  - t(0)#1 + t(1)#2 + 1027.9 y(1)(0)#16 >= 27.9
 c39:  t(1)#2 - t(2)#3 + 1067.2 y(1)(2)#17 >= 67.2
 c41:  t(1)#2 - t(3)#4 + 1025.6 y(1)(3)#18 >= 25.6
 c43:  t(1)#2 - t(4)#5 + 1028.8 y(1)(4)#19 >= 28.8
 c45:  t(1)#2 - t(5)#6 + 1048.4 y(1)(5)#20 >= 48.4
 c47:  t(1)#2 - t(6)#7 + 1057.4 y(1)(6)#21 >= 57.4
 c49:  t(1)#2 - t(7)#8 + 1021.6 y(1)(7)#22 >= 21.6
 c51:  - t(0)#1 + t(2)#3 + 1054.6 y(2)(0)#23 >= 54.6
 c53:  - t(1)#2 + t(2)#3 + 1067.2 y(2)(1)#24 >= 67.2
 c55:  t(2)#3 - t(3)#4 + 1060.5 y(2)(3)#25 >= 60.5
 c57:  t(2)#3 - t(4)#5 + 1095.8 y(2)(4)#26 >= 95.8
 c59:  t(2)#3 - t(5)#6 + 1018.8 y(2)(5)#27 >= 18.8
 c61:  t(2)#3 - t(6)#7 + 1060.4 y(2)(6)#28 >= 60.4
 c63:  t(2)#3 - t(7)#8 + 1052.1 y(2)(7)#29 >= 52.1
 c65:  - t(0)#1 + t(3)#4 + 1042 y(3)(0)#30 >= 42
 c67:  - t(1)#2 + t(3)#4 + 1025.6 y(3)(1)#31 >= 25.6
 c69:  - t(2)#3 + t(3)#4 + 1060.5 y(3)(2)#32 >= 60.5
 c71:  t(3)#4 - t(4)#5 + 1039.4 y(3)(4)#33 >= 39.4
 c73:  t(3)#4 - t(5)#6 + 1043.1 y(3)(5)#34 >= 43.1
 c75:  t(3)#4 - t(6)#7 + 1070.2 y(3)(6)#35 >= 70.2
 c77:  t(3)#4 - t(7)#8 + 1012.2 y(3)(7)#36 >= 12.2
 c79:  - t(0)#1 + t(4)#5 + 1056.5 y(4)(0)#37 >= 56.5
 c81:  - t(1)#2 + t(4)#5 + 1028.8 y(4)(1)#38 >= 28.8
 c83:  - t(2)#3 + t(4)#5 + 1095.8 y(4)(2)#39 >= 95.8
 c85:  - t(3)#4 + t(4)#5 + 1039.4 y(4)(3)#40 >= 39.4
 c87:  t(4)#5 - t(5)#6 + 1077.2 y(4)(5)#41 >= 77.2
 c89:  t(4)#5 - t(6)#7 + 1084.5 y(4)(6)#42 >= 84.5
 c91:  t(4)#5 - t(7)#8 + 1044.4 y(4)(7)#43 >= 44.4
 c93:  - t(0)#1 + t(5)#6 + 1037 y(5)(0)#44 >= 37
 c95:  - t(1)#2 + t(5)#6 + 1048.4 y(5)(1)#45 >= 48.4
 c97:  - t(2)#3 + t(5)#6 + 1018.8 y(5)(2)#46 >= 18.8
 c99:  - t(3)#4 + t(5)#6 + 1043.1 y(5)(3)#47 >= 43.1
 c101: - t(4)#5 + t(5)#6 + 1077.2 y(5)(4)#48 >= 77.2
 c103: t(5)#6 - t(6)#7 + 1051.6 y(5)(6)#49 >= 51.6
 c105: t(5)#6 - t(7)#8 + 1034 y(5)(7)#50 >= 34
 c107: - t(0)#1 + t(6)#7 + 1030.9 y(6)(0)#51 >= 30.9
 c109: - t(1)#2 + t(6)#7 + 1057.4 y(6)(1)#52 >= 57.4
 c111: - t(2)#3 + t(6)#7 + 1060.4 y(6)(2)#53 >= 60.4
 c113: - t(3)#4 + t(6)#7 + 1070.2 y(6)(3)#54 >= 70.2
 c115: - t(4)#5 + t(6)#7 + 1084.5 y(6)(4)#55 >= 84.5
 c117: - t(5)#6 + t(6)#7 + 1051.6 y(6)(5)#56 >= 51.6
 c119: t(6)#7 - t(7)#8 + 1059.3 y(6)(7)#57 >= 59.3
 c121: - t(0)#1 + t(7)#8 + 1034.1 y(7)(0)#58 >= 34.1
 c123: - t(1)#2 + t(7)#8 + 1021.6 y(7)(1)#59 >= 21.6
 c125: - t(2)#3 + t(7)#8 + 1052.1 y(7)(2)#60 >= 52.1
 c127: - t(3)#4 + t(7)#8 + 1012.2 y(7)(3)#61 >= 12.2
 c129: - t(4)#5 + t(7)#8 + 1044.4 y(7)(4)#62 >= 44.4
 c131: - t(5)#6 + t(7)#8 + 1034 y(7)(5)#63 >= 34
 c133: - t(6)#7 + t(7)#8 + 1059.3 y(7)(6)#64 >= 59.3
 c135: - t(0)#1 + t(1)#2 - 1027.9 y(0)(1)#9 >= -1000
 c137: - t(0)#1 + t(2)#3 - 1054.6 y(0)(2)#10 >= -1000
 c139: - t(0)#1 + t(3)#4 - 1042 y(0)(3)#11 >= -1000
 c141: - t(0)#1 + t(4)#5 - 1056.5 y(0)(4)#12 >= -1000
 c143: - t(0)#1 + t(5)#6 - 1037 y(0)(5)#13 >= -1000
 c145: - t(0)#1 + t(6)#7 - 1030.9 y(0)(6)#14 >= -1000
 c147: - t(0)#1 + t(7)#8 - 1034.1 y(0)(7)#15 >= -1000
 c149: t(0)#1 - t(1)#2 - 1027.9 y(1)(0)#16 >= -1000
 c151: - t(1)#2 + t(2)#3 - 1067.2 y(1)(2)#17 >= -1000
 c153: - t(1)#2 + t(3)#4 - 1025.6 y(1)(3)#18 >= -1000
 c155: - t(1)#2 + t(4)#5 - 1028.8 y(1)(4)#19 >= -1000
 c157: - t(1)#2 + t(5)#6 - 1048.4 y(1)(5)#20 >= -1000
 c159: - t(1)#2 + t(6)#7 - 1057.4 y(1)(6)#21 >= -1000
 c161: - t(1)#2 + t(7)#8 - 1021.6 y(1)(7)#22 >= -1000
 c163: t(0)#1 - t(2)#3 - 1054.6 y(2)(0)#23 >= -1000
 c165: t(1)#2 - t(2)#3 - 1067.2 y(2)(1)#24 >= -1000
 c167: - t(2)#3 + t(3)#4 - 1060.5 y(2)(3)#25 >= -1000
 c169: - t(2)#3 + t(4)#5 - 1095.8 y(2)(4)#26 >= -1000
 c171: - t(2)#3 + t(5)#6 - 1018.8 y(2)(5)#27 >= -1000
 c173: - t(2)#3 + t(6)#7 - 1060.4 y(2)(6)#28 >= -1000
 c175: - t(2)#3 + t(7)#8 - 1052.1 y(2)(7)#29 >= -1000
 c177: t(0)#1 - t(3)#4 - 1042 y(3)(0)#30 >= -1000
 c179: t(1)#2 - t(3)#4 - 1025.6 y(3)(1)#31 >= -1000
 c181: t(2)#3 - t(3)#4 - 1060.5 y(3)(2)#32 >= -1000
 c183: - t(3)#4 + t(4)#5 - 1039.4 y(3)(4)#33 >= -1000
 c185: - t(3)#4 + t(5)#6 - 1043.1 y(3)(5)#34 >= -1000
 c187: - t(3)#4 + t(6)#7 - 1070.2 y(3)(6)#35 >= -1000
 c189: - t(3)#4 + t(7)#8 - 1012.2 y(3)(7)#36 >= -1000
 c191: t(0)#1 - t(4)#5 - 1056.5 y(4)(0)#37 >= -1000
 c193: t(1)#2 - t(4)#5 - 1028.8 y(4)(1)#38 >= -1000
 c195: t(2)#3 - t(4)#5 - 1095.8 y(4)(2)#39 >= -1000
 c197: t(3)#4 - t(4)#5 - 1039.4 y(4)(3)#40 >= -1000
 c199: - t(4)#5 + t(5)#6 - 1077.2 y(4)(5)#41 >= -1000
 c201: - t(4)#5 + t(6)#7 - 1084.5 y(4)(6)#42 >= -1000
 c203: - t(4)#5 + t(7)#8 - 1044.4 y(4)(7)#43 >= -1000
 c205: t(0)#1 - t(5)#6 - 1037 y(5)(0)#44 >= -1000
 c207: t(1)#2 - t(5)#6 - 1048.4 y(5)(1)#45 >= -1000
 c209: t(2)#3 - t(5)#6 - 1018.8 y(5)(2)#46 >= -1000
 c211: t(3)#4 - t(5)#6 - 1043.1 y(5)(3)#47 >= -1000
 c213: t(4)#5 - t(5)#6 - 1077.2 y(5)(4)#48 >= -1000
 c215: - t(5)#6 + t(6)#7 - 1051.6 y(5)(6)#49 >= -1000
 c217: - t(5)#6 + t(7)#8 - 1034 y(5)(7)#50 >= -1000
 c219: t(0)#1 - t(6)#7 - 1030.9 y(6)(0)#51 >= -1000
 c221: t(1)#2 - t(6)#7 - 1057.4 y(6)(1)#52 >= -1000
 c223: t(2)#3 - t(6)#7 - 1060.4 y(6)(2)#53 >= -1000
 c225: t(3)#4 - t(6)#7 - 1070.2 y(6)(3)#54 >= -1000
 c227: t(4)#5 - t(6)#7 - 1084.5 y(6)(4)#55 >= -1000
 c229: t(5)#6 - t(6)#7 - 1051.6 y(6)(5)#56 >= -1000
 c231: - t(6)#7 + t(7)#8 - 1059.3 y(6)(7)#57 >= -1000
 c233: t(0)#1 - t(7)#8 - 1034.1 y(7)(0)#58 >= -1000
 c235: t(1)#2 - t(7)#8 - 1021.6 y(7)(1)#59 >= -1000
 c237: t(2)#3 - t(7)#8 - 1052.1 y(7)(2)#60 >= -1000
 c239: t(3)#4 - t(7)#8 - 1012.2 y(7)(3)#61 >= -1000
 c241: t(4)#5 - t(7)#8 - 1044.4 y(7)(4)#62 >= -1000
 c243: t(5)#6 - t(7)#8 - 1034 y(7)(5)#63 >= -1000
 c245: t(6)#7 - t(7)#8 - 1059.3 y(7)(6)#64 >= -1000
 c247: t(1)#2 >= 0
 c249: t(2)#3 >= 0
 c251: t(3)#4 >= 0
 c253: t(4)#5 >= 0
 c255: t(5)#6 >= 0
 c257: t(6)#7 >= 0
 c259: t(7)#8 >= 0
 c261: t(1)#2 <= 1000
 c263: t(2)#3 <= 1000
 c265: t(3)#4 <= 1000
 c267: t(4)#5 <= 1000
 c269: t(5)#6 <= 1000
 c271: t(6)#7 <= 1000
 c273: t(7)#8 <= 1000
 c275: t(0)#1  = 0
Bounds
 0 <= y(0)(1)#9 <= 1
 0 <= y(0)(2)#10 <= 1
 0 <= y(0)(3)#11 <= 1
 0 <= y(0)(4)#12 <= 1
 0 <= y(0)(5)#13 <= 1
 0 <= y(0)(6)#14 <= 1
 0 <= y(0)(7)#15 <= 1
 0 <= y(1)(0)#16 <= 1
 0 <= y(1)(2)#17 <= 1
 0 <= y(1)(3)#18 <= 1
 0 <= y(1)(4)#19 <= 1
 0 <= y(1)(5)#20 <= 1
 0 <= y(1)(6)#21 <= 1
 0 <= y(1)(7)#22 <= 1
 0 <= y(2)(0)#23 <= 1
 0 <= y(2)(1)#24 <= 1
 0 <= y(2)(3)#25 <= 1
 0 <= y(2)(4)#26 <= 1
 0 <= y(2)(5)#27 <= 1
 0 <= y(2)(6)#28 <= 1
 0 <= y(2)(7)#29 <= 1
 0 <= y(3)(0)#30 <= 1
 0 <= y(3)(1)#31 <= 1
 0 <= y(3)(2)#32 <= 1
 0 <= y(3)(4)#33 <= 1
 0 <= y(3)(5)#34 <= 1
 0 <= y(3)(6)#35 <= 1
 0 <= y(3)(7)#36 <= 1
 0 <= y(4)(0)#37 <= 1
 0 <= y(4)(1)#38 <= 1
 0 <= y(4)(2)#39 <= 1
 0 <= y(4)(3)#40 <= 1
 0 <= y(4)(5)#41 <= 1
 0 <= y(4)(6)#42 <= 1
 0 <= y(4)(7)#43 <= 1
 0 <= y(5)(0)#44 <= 1
 0 <= y(5)(1)#45 <= 1
 0 <= y(5)(2)#46 <= 1
 0 <= y(5)(3)#47 <= 1
 0 <= y(5)(4)#48 <= 1
 0 <= y(5)(6)#49 <= 1
 0 <= y(5)(7)#50 <= 1
 0 <= y(6)(0)#51 <= 1
 0 <= y(6)(1)#52 <= 1
 0 <= y(6)(2)#53 <= 1
 0 <= y(6)(3)#54 <= 1
 0 <= y(6)(4)#55 <= 1
 0 <= y(6)(5)#56 <= 1
 0 <= y(6)(7)#57 <= 1
 0 <= y(7)(0)#58 <= 1
 0 <= y(7)(1)#59 <= 1
 0 <= y(7)(2)#60 <= 1
 0 <= y(7)(3)#61 <= 1
 0 <= y(7)(4)#62 <= 1
 0 <= y(7)(5)#63 <= 1
 0 <= y(7)(6)#64 <= 1
Generals
 y(0)(1)#9  y(0)(2)#10  y(0)(3)#11  y(0)(4)#12  y(0)(5)#13  y(0)(6)#14 
 y(0)(7)#15  y(1)(0)#16  y(1)(2)#17  y(1)(3)#18  y(1)(4)#19  y(1)(5)#20 
 y(1)(6)#21  y(1)(7)#22  y(2)(0)#23  y(2)(1)#24  y(2)(3)#25  y(2)(4)#26 
 y(2)(5)#27  y(2)(6)#28  y(2)(7)#29  y(3)(0)#30  y(3)(1)#31  y(3)(2)#32 
 y(3)(4)#33  y(3)(5)#34  y(3)(6)#35  y(3)(7)#36  y(4)(0)#37  y(4)(1)#38 
 y(4)(2)#39  y(4)(3)#40  y(4)(5)#41  y(4)(6)#42  y(4)(7)#43  y(5)(0)#44 
 y(5)(1)#45  y(5)(2)#46  y(5)(3)#47  y(5)(4)#48  y(5)(6)#49  y(5)(7)#50 
 y(6)(0)#51  y(6)(1)#52  y(6)(2)#53  y(6)(3)#54  y(6)(4)#55  y(6)(5)#56 
 y(6)(7)#57  y(7)(0)#58  y(7)(1)#59  y(7)(2)#60  y(7)(3)#61  y(7)(4)#62 
 y(7)(5)#63  y(7)(6)#64 
End
